c 3 __UCLIBC_HAS_GNU_GLOB__
c 1 __UCLIBC_HAS_THREADS_NATIVE__
c 2 __UCLIBC_HAS_XLOCALE__
c 7 __UCLIBC_HAS_LOCALE__
c 4 __UCLIBC_HAS_GLOB__
c 6 __MALLOC_STANDARD__
c 5 __UCLIBC_HAS_THREADS__
p cnf 7 1
-3 -4 -2 -5 -6 -1 7 1
